NAME: rand_1/map6_72
TYPE: TSP
COMMENT: autogenerated using a wonderful map creator
DIMENSION: 96
EDGE_WEIGHT_TYPE: EUC_2D
NODE_COORD_SECTION
1 82.0 4.0
2 5.0 8.0
3 78.0 4.0
4 81.0 7.0
5 82.0 8.0
6 2.0 9.0
7 79.0 1.0
8 82.0 7.0
9 2.0 3.0
10 79.0 6.0
11 1.0 2.0
12 82.0 3.0
13 2.0 8.0
14 3.0 7.0
15 5.0 9.0
16 2.0 5.0
17 81.0 4.0
18 80.0 2.0
19 79.0 3.0
20 78.0 7.0
21 1.0 9.0
22 4.0 8.0
23 80.0 7.0
24 4.0 6.0
25 78.0 2.0
26 82.0 9.0
27 4.0 5.0
28 79.0 4.0
29 81.0 2.0
30 81.0 5.0
31 3.0 4.0
32 79.0 7.0
33 79.0 5.0
34 79.0 9.0
35 81.0 3.0
36 81.0 1.0
37 78.0 5.0
38 80.0 1.0
39 1.0 5.0
40 3.0 8.0
41 1.0 6.0
42 1.0 4.0
43 4.0 4.0
44 2.0 1.0
45 81.0 9.0
46 1.0 1.0
47 4.0 2.0
48 80.0 3.0
49 64.0 5.0
50 55.0 2.0
51 36.0 7.0
52 9.0 8.0
53 11.0 5.0
54 48.0 8.0
55 24.0 8.0
56 26.0 5.0
57 72.0 2.0
58 70.0 2.0
59 37.0 8.0
60 17.0 5.0
61 41.0 8.0
62 54.0 8.0
63 56.0 5.0
64 47.0 2.0
65 45.0 5.0
66 27.0 8.0
67 14.0 8.0
68 51.0 2.0
69 49.0 2.0
70 16.0 8.0
71 71.0 8.0
72 64.0 2.0
73 55.0 8.0
74 33.0 8.0
75 35.0 5.0
76 24.0 5.0
77 25.0 4.0
78 26.0 2.0
79 72.0 8.0
80 47.0 6.0
81 14.0 3.0
82 58.0 3.0
83 50.0 8.0
84 32.0 2.0
85 10.0 8.0
86 51.0 8.0
87 62.0 2.0
88 71.0 5.0
89 73.0 2.0
90 29.0 8.0
91 40.0 8.0
92 14.0 7.0
93 75.0 2.0
94 35.0 2.0
95 46.0 8.0
96 57.0 8.0
97 50.0 5.0
98 41.0 2.0
99 8.0 8.0
100 10.0 5.0
101 65.0 5.0
102 25.0 3.0
103 30.0 8.0
104 12.0 5.0
105 14.0 2.0
106 67.0 5.0
107 23.0 5.0
108 36.0 8.0
109 27.0 5.0
110 16.0 2.0
111 25.0 5.0
112 38.0 8.0
113 14.0 4.0
114 11.0 8.0
115 57.0 5.0
116 48.0 2.0
117 69.0 6.0
118 28.0 8.0
119 10.0 2.0
120 65.0 2.0
START_DEPOT_SECTION
1
2
3
4
5
6
7
8
9
10
11
12
13
14
15
16
17
18
19
20
21
22
23
24
-1
END_DEPOT_SECTION
25
26
27
28
29
30
31
32
33
34
35
36
37
38
39
40
41
42
43
44
45
46
47
48
-1
EOF
